c created by edge2cnf
p cnf 500 3100
-1 -2 0
-1 -3 0
-1 -4 0
-1 -5 0
-2 -3 0
-2 -4 0
-2 -5 0
-3 -4 0
-3 -5 0
-4 -5 0
1 2 3 4 5 0
-6 -7 0
-6 -8 0
-6 -9 0
-6 -10 0
-7 -8 0
-7 -9 0
-7 -10 0
-8 -9 0
-8 -10 0
-9 -10 0
6 7 8 9 10 0
-11 -12 0
-11 -13 0
-11 -14 0
-11 -15 0
-12 -13 0
-12 -14 0
-12 -15 0
-13 -14 0
-13 -15 0
-14 -15 0
11 12 13 14 15 0
-16 -17 0
-16 -18 0
-16 -19 0
-16 -20 0
-17 -18 0
-17 -19 0
-17 -20 0
-18 -19 0
-18 -20 0
-19 -20 0
16 17 18 19 20 0
-21 -22 0
-21 -23 0
-21 -24 0
-21 -25 0
-22 -23 0
-22 -24 0
-22 -25 0
-23 -24 0
-23 -25 0
-24 -25 0
21 22 23 24 25 0
-26 -27 0
-26 -28 0
-26 -29 0
-26 -30 0
-27 -28 0
-27 -29 0
-27 -30 0
-28 -29 0
-28 -30 0
-29 -30 0
26 27 28 29 30 0
-31 -32 0
-31 -33 0
-31 -34 0
-31 -35 0
-32 -33 0
-32 -34 0
-32 -35 0
-33 -34 0
-33 -35 0
-34 -35 0
31 32 33 34 35 0
-36 -37 0
-36 -38 0
-36 -39 0
-36 -40 0
-37 -38 0
-37 -39 0
-37 -40 0
-38 -39 0
-38 -40 0
-39 -40 0
36 37 38 39 40 0
-41 -42 0
-41 -43 0
-41 -44 0
-41 -45 0
-42 -43 0
-42 -44 0
-42 -45 0
-43 -44 0
-43 -45 0
-44 -45 0
41 42 43 44 45 0
-46 -47 0
-46 -48 0
-46 -49 0
-46 -50 0
-47 -48 0
-47 -49 0
-47 -50 0
-48 -49 0
-48 -50 0
-49 -50 0
46 47 48 49 50 0
-51 -52 0
-51 -53 0
-51 -54 0
-51 -55 0
-52 -53 0
-52 -54 0
-52 -55 0
-53 -54 0
-53 -55 0
-54 -55 0
51 52 53 54 55 0
-56 -57 0
-56 -58 0
-56 -59 0
-56 -60 0
-57 -58 0
-57 -59 0
-57 -60 0
-58 -59 0
-58 -60 0
-59 -60 0
56 57 58 59 60 0
-61 -62 0
-61 -63 0
-61 -64 0
-61 -65 0
-62 -63 0
-62 -64 0
-62 -65 0
-63 -64 0
-63 -65 0
-64 -65 0
61 62 63 64 65 0
-66 -67 0
-66 -68 0
-66 -69 0
-66 -70 0
-67 -68 0
-67 -69 0
-67 -70 0
-68 -69 0
-68 -70 0
-69 -70 0
66 67 68 69 70 0
-71 -72 0
-71 -73 0
-71 -74 0
-71 -75 0
-72 -73 0
-72 -74 0
-72 -75 0
-73 -74 0
-73 -75 0
-74 -75 0
71 72 73 74 75 0
-76 -77 0
-76 -78 0
-76 -79 0
-76 -80 0
-77 -78 0
-77 -79 0
-77 -80 0
-78 -79 0
-78 -80 0
-79 -80 0
76 77 78 79 80 0
-81 -82 0
-81 -83 0
-81 -84 0
-81 -85 0
-82 -83 0
-82 -84 0
-82 -85 0
-83 -84 0
-83 -85 0
-84 -85 0
81 82 83 84 85 0
-86 -87 0
-86 -88 0
-86 -89 0
-86 -90 0
-87 -88 0
-87 -89 0
-87 -90 0
-88 -89 0
-88 -90 0
-89 -90 0
86 87 88 89 90 0
-91 -92 0
-91 -93 0
-91 -94 0
-91 -95 0
-92 -93 0
-92 -94 0
-92 -95 0
-93 -94 0
-93 -95 0
-94 -95 0
91 92 93 94 95 0
-96 -97 0
-96 -98 0
-96 -99 0
-96 -100 0
-97 -98 0
-97 -99 0
-97 -100 0
-98 -99 0
-98 -100 0
-99 -100 0
96 97 98 99 100 0
-101 -102 0
-101 -103 0
-101 -104 0
-101 -105 0
-102 -103 0
-102 -104 0
-102 -105 0
-103 -104 0
-103 -105 0
-104 -105 0
101 102 103 104 105 0
-106 -107 0
-106 -108 0
-106 -109 0
-106 -110 0
-107 -108 0
-107 -109 0
-107 -110 0
-108 -109 0
-108 -110 0
-109 -110 0
106 107 108 109 110 0
-111 -112 0
-111 -113 0
-111 -114 0
-111 -115 0
-112 -113 0
-112 -114 0
-112 -115 0
-113 -114 0
-113 -115 0
-114 -115 0
111 112 113 114 115 0
-116 -117 0
-116 -118 0
-116 -119 0
-116 -120 0
-117 -118 0
-117 -119 0
-117 -120 0
-118 -119 0
-118 -120 0
-119 -120 0
116 117 118 119 120 0
-121 -122 0
-121 -123 0
-121 -124 0
-121 -125 0
-122 -123 0
-122 -124 0
-122 -125 0
-123 -124 0
-123 -125 0
-124 -125 0
121 122 123 124 125 0
-126 -127 0
-126 -128 0
-126 -129 0
-126 -130 0
-127 -128 0
-127 -129 0
-127 -130 0
-128 -129 0
-128 -130 0
-129 -130 0
126 127 128 129 130 0
-131 -132 0
-131 -133 0
-131 -134 0
-131 -135 0
-132 -133 0
-132 -134 0
-132 -135 0
-133 -134 0
-133 -135 0
-134 -135 0
131 132 133 134 135 0
-136 -137 0
-136 -138 0
-136 -139 0
-136 -140 0
-137 -138 0
-137 -139 0
-137 -140 0
-138 -139 0
-138 -140 0
-139 -140 0
136 137 138 139 140 0
-141 -142 0
-141 -143 0
-141 -144 0
-141 -145 0
-142 -143 0
-142 -144 0
-142 -145 0
-143 -144 0
-143 -145 0
-144 -145 0
141 142 143 144 145 0
-146 -147 0
-146 -148 0
-146 -149 0
-146 -150 0
-147 -148 0
-147 -149 0
-147 -150 0
-148 -149 0
-148 -150 0
-149 -150 0
146 147 148 149 150 0
-151 -152 0
-151 -153 0
-151 -154 0
-151 -155 0
-152 -153 0
-152 -154 0
-152 -155 0
-153 -154 0
-153 -155 0
-154 -155 0
151 152 153 154 155 0
-156 -157 0
-156 -158 0
-156 -159 0
-156 -160 0
-157 -158 0
-157 -159 0
-157 -160 0
-158 -159 0
-158 -160 0
-159 -160 0
156 157 158 159 160 0
-161 -162 0
-161 -163 0
-161 -164 0
-161 -165 0
-162 -163 0
-162 -164 0
-162 -165 0
-163 -164 0
-163 -165 0
-164 -165 0
161 162 163 164 165 0
-166 -167 0
-166 -168 0
-166 -169 0
-166 -170 0
-167 -168 0
-167 -169 0
-167 -170 0
-168 -169 0
-168 -170 0
-169 -170 0
166 167 168 169 170 0
-171 -172 0
-171 -173 0
-171 -174 0
-171 -175 0
-172 -173 0
-172 -174 0
-172 -175 0
-173 -174 0
-173 -175 0
-174 -175 0
171 172 173 174 175 0
-176 -177 0
-176 -178 0
-176 -179 0
-176 -180 0
-177 -178 0
-177 -179 0
-177 -180 0
-178 -179 0
-178 -180 0
-179 -180 0
176 177 178 179 180 0
-181 -182 0
-181 -183 0
-181 -184 0
-181 -185 0
-182 -183 0
-182 -184 0
-182 -185 0
-183 -184 0
-183 -185 0
-184 -185 0
181 182 183 184 185 0
-186 -187 0
-186 -188 0
-186 -189 0
-186 -190 0
-187 -188 0
-187 -189 0
-187 -190 0
-188 -189 0
-188 -190 0
-189 -190 0
186 187 188 189 190 0
-191 -192 0
-191 -193 0
-191 -194 0
-191 -195 0
-192 -193 0
-192 -194 0
-192 -195 0
-193 -194 0
-193 -195 0
-194 -195 0
191 192 193 194 195 0
-196 -197 0
-196 -198 0
-196 -199 0
-196 -200 0
-197 -198 0
-197 -199 0
-197 -200 0
-198 -199 0
-198 -200 0
-199 -200 0
196 197 198 199 200 0
-201 -202 0
-201 -203 0
-201 -204 0
-201 -205 0
-202 -203 0
-202 -204 0
-202 -205 0
-203 -204 0
-203 -205 0
-204 -205 0
201 202 203 204 205 0
-206 -207 0
-206 -208 0
-206 -209 0
-206 -210 0
-207 -208 0
-207 -209 0
-207 -210 0
-208 -209 0
-208 -210 0
-209 -210 0
206 207 208 209 210 0
-211 -212 0
-211 -213 0
-211 -214 0
-211 -215 0
-212 -213 0
-212 -214 0
-212 -215 0
-213 -214 0
-213 -215 0
-214 -215 0
211 212 213 214 215 0
-216 -217 0
-216 -218 0
-216 -219 0
-216 -220 0
-217 -218 0
-217 -219 0
-217 -220 0
-218 -219 0
-218 -220 0
-219 -220 0
216 217 218 219 220 0
-221 -222 0
-221 -223 0
-221 -224 0
-221 -225 0
-222 -223 0
-222 -224 0
-222 -225 0
-223 -224 0
-223 -225 0
-224 -225 0
221 222 223 224 225 0
-226 -227 0
-226 -228 0
-226 -229 0
-226 -230 0
-227 -228 0
-227 -229 0
-227 -230 0
-228 -229 0
-228 -230 0
-229 -230 0
226 227 228 229 230 0
-231 -232 0
-231 -233 0
-231 -234 0
-231 -235 0
-232 -233 0
-232 -234 0
-232 -235 0
-233 -234 0
-233 -235 0
-234 -235 0
231 232 233 234 235 0
-236 -237 0
-236 -238 0
-236 -239 0
-236 -240 0
-237 -238 0
-237 -239 0
-237 -240 0
-238 -239 0
-238 -240 0
-239 -240 0
236 237 238 239 240 0
-241 -242 0
-241 -243 0
-241 -244 0
-241 -245 0
-242 -243 0
-242 -244 0
-242 -245 0
-243 -244 0
-243 -245 0
-244 -245 0
241 242 243 244 245 0
-246 -247 0
-246 -248 0
-246 -249 0
-246 -250 0
-247 -248 0
-247 -249 0
-247 -250 0
-248 -249 0
-248 -250 0
-249 -250 0
246 247 248 249 250 0
-251 -252 0
-251 -253 0
-251 -254 0
-251 -255 0
-252 -253 0
-252 -254 0
-252 -255 0
-253 -254 0
-253 -255 0
-254 -255 0
251 252 253 254 255 0
-256 -257 0
-256 -258 0
-256 -259 0
-256 -260 0
-257 -258 0
-257 -259 0
-257 -260 0
-258 -259 0
-258 -260 0
-259 -260 0
256 257 258 259 260 0
-261 -262 0
-261 -263 0
-261 -264 0
-261 -265 0
-262 -263 0
-262 -264 0
-262 -265 0
-263 -264 0
-263 -265 0
-264 -265 0
261 262 263 264 265 0
-266 -267 0
-266 -268 0
-266 -269 0
-266 -270 0
-267 -268 0
-267 -269 0
-267 -270 0
-268 -269 0
-268 -270 0
-269 -270 0
266 267 268 269 270 0
-271 -272 0
-271 -273 0
-271 -274 0
-271 -275 0
-272 -273 0
-272 -274 0
-272 -275 0
-273 -274 0
-273 -275 0
-274 -275 0
271 272 273 274 275 0
-276 -277 0
-276 -278 0
-276 -279 0
-276 -280 0
-277 -278 0
-277 -279 0
-277 -280 0
-278 -279 0
-278 -280 0
-279 -280 0
276 277 278 279 280 0
-281 -282 0
-281 -283 0
-281 -284 0
-281 -285 0
-282 -283 0
-282 -284 0
-282 -285 0
-283 -284 0
-283 -285 0
-284 -285 0
281 282 283 284 285 0
-286 -287 0
-286 -288 0
-286 -289 0
-286 -290 0
-287 -288 0
-287 -289 0
-287 -290 0
-288 -289 0
-288 -290 0
-289 -290 0
286 287 288 289 290 0
-291 -292 0
-291 -293 0
-291 -294 0
-291 -295 0
-292 -293 0
-292 -294 0
-292 -295 0
-293 -294 0
-293 -295 0
-294 -295 0
291 292 293 294 295 0
-296 -297 0
-296 -298 0
-296 -299 0
-296 -300 0
-297 -298 0
-297 -299 0
-297 -300 0
-298 -299 0
-298 -300 0
-299 -300 0
296 297 298 299 300 0
-301 -302 0
-301 -303 0
-301 -304 0
-301 -305 0
-302 -303 0
-302 -304 0
-302 -305 0
-303 -304 0
-303 -305 0
-304 -305 0
301 302 303 304 305 0
-306 -307 0
-306 -308 0
-306 -309 0
-306 -310 0
-307 -308 0
-307 -309 0
-307 -310 0
-308 -309 0
-308 -310 0
-309 -310 0
306 307 308 309 310 0
-311 -312 0
-311 -313 0
-311 -314 0
-311 -315 0
-312 -313 0
-312 -314 0
-312 -315 0
-313 -314 0
-313 -315 0
-314 -315 0
311 312 313 314 315 0
-316 -317 0
-316 -318 0
-316 -319 0
-316 -320 0
-317 -318 0
-317 -319 0
-317 -320 0
-318 -319 0
-318 -320 0
-319 -320 0
316 317 318 319 320 0
-321 -322 0
-321 -323 0
-321 -324 0
-321 -325 0
-322 -323 0
-322 -324 0
-322 -325 0
-323 -324 0
-323 -325 0
-324 -325 0
321 322 323 324 325 0
-326 -327 0
-326 -328 0
-326 -329 0
-326 -330 0
-327 -328 0
-327 -329 0
-327 -330 0
-328 -329 0
-328 -330 0
-329 -330 0
326 327 328 329 330 0
-331 -332 0
-331 -333 0
-331 -334 0
-331 -335 0
-332 -333 0
-332 -334 0
-332 -335 0
-333 -334 0
-333 -335 0
-334 -335 0
331 332 333 334 335 0
-336 -337 0
-336 -338 0
-336 -339 0
-336 -340 0
-337 -338 0
-337 -339 0
-337 -340 0
-338 -339 0
-338 -340 0
-339 -340 0
336 337 338 339 340 0
-341 -342 0
-341 -343 0
-341 -344 0
-341 -345 0
-342 -343 0
-342 -344 0
-342 -345 0
-343 -344 0
-343 -345 0
-344 -345 0
341 342 343 344 345 0
-346 -347 0
-346 -348 0
-346 -349 0
-346 -350 0
-347 -348 0
-347 -349 0
-347 -350 0
-348 -349 0
-348 -350 0
-349 -350 0
346 347 348 349 350 0
-351 -352 0
-351 -353 0
-351 -354 0
-351 -355 0
-352 -353 0
-352 -354 0
-352 -355 0
-353 -354 0
-353 -355 0
-354 -355 0
351 352 353 354 355 0
-356 -357 0
-356 -358 0
-356 -359 0
-356 -360 0
-357 -358 0
-357 -359 0
-357 -360 0
-358 -359 0
-358 -360 0
-359 -360 0
356 357 358 359 360 0
-361 -362 0
-361 -363 0
-361 -364 0
-361 -365 0
-362 -363 0
-362 -364 0
-362 -365 0
-363 -364 0
-363 -365 0
-364 -365 0
361 362 363 364 365 0
-366 -367 0
-366 -368 0
-366 -369 0
-366 -370 0
-367 -368 0
-367 -369 0
-367 -370 0
-368 -369 0
-368 -370 0
-369 -370 0
366 367 368 369 370 0
-371 -372 0
-371 -373 0
-371 -374 0
-371 -375 0
-372 -373 0
-372 -374 0
-372 -375 0
-373 -374 0
-373 -375 0
-374 -375 0
371 372 373 374 375 0
-376 -377 0
-376 -378 0
-376 -379 0
-376 -380 0
-377 -378 0
-377 -379 0
-377 -380 0
-378 -379 0
-378 -380 0
-379 -380 0
376 377 378 379 380 0
-381 -382 0
-381 -383 0
-381 -384 0
-381 -385 0
-382 -383 0
-382 -384 0
-382 -385 0
-383 -384 0
-383 -385 0
-384 -385 0
381 382 383 384 385 0
-386 -387 0
-386 -388 0
-386 -389 0
-386 -390 0
-387 -388 0
-387 -389 0
-387 -390 0
-388 -389 0
-388 -390 0
-389 -390 0
386 387 388 389 390 0
-391 -392 0
-391 -393 0
-391 -394 0
-391 -395 0
-392 -393 0
-392 -394 0
-392 -395 0
-393 -394 0
-393 -395 0
-394 -395 0
391 392 393 394 395 0
-396 -397 0
-396 -398 0
-396 -399 0
-396 -400 0
-397 -398 0
-397 -399 0
-397 -400 0
-398 -399 0
-398 -400 0
-399 -400 0
396 397 398 399 400 0
-401 -402 0
-401 -403 0
-401 -404 0
-401 -405 0
-402 -403 0
-402 -404 0
-402 -405 0
-403 -404 0
-403 -405 0
-404 -405 0
401 402 403 404 405 0
-406 -407 0
-406 -408 0
-406 -409 0
-406 -410 0
-407 -408 0
-407 -409 0
-407 -410 0
-408 -409 0
-408 -410 0
-409 -410 0
406 407 408 409 410 0
-411 -412 0
-411 -413 0
-411 -414 0
-411 -415 0
-412 -413 0
-412 -414 0
-412 -415 0
-413 -414 0
-413 -415 0
-414 -415 0
411 412 413 414 415 0
-416 -417 0
-416 -418 0
-416 -419 0
-416 -420 0
-417 -418 0
-417 -419 0
-417 -420 0
-418 -419 0
-418 -420 0
-419 -420 0
416 417 418 419 420 0
-421 -422 0
-421 -423 0
-421 -424 0
-421 -425 0
-422 -423 0
-422 -424 0
-422 -425 0
-423 -424 0
-423 -425 0
-424 -425 0
421 422 423 424 425 0
-426 -427 0
-426 -428 0
-426 -429 0
-426 -430 0
-427 -428 0
-427 -429 0
-427 -430 0
-428 -429 0
-428 -430 0
-429 -430 0
426 427 428 429 430 0
-431 -432 0
-431 -433 0
-431 -434 0
-431 -435 0
-432 -433 0
-432 -434 0
-432 -435 0
-433 -434 0
-433 -435 0
-434 -435 0
431 432 433 434 435 0
-436 -437 0
-436 -438 0
-436 -439 0
-436 -440 0
-437 -438 0
-437 -439 0
-437 -440 0
-438 -439 0
-438 -440 0
-439 -440 0
436 437 438 439 440 0
-441 -442 0
-441 -443 0
-441 -444 0
-441 -445 0
-442 -443 0
-442 -444 0
-442 -445 0
-443 -444 0
-443 -445 0
-444 -445 0
441 442 443 444 445 0
-446 -447 0
-446 -448 0
-446 -449 0
-446 -450 0
-447 -448 0
-447 -449 0
-447 -450 0
-448 -449 0
-448 -450 0
-449 -450 0
446 447 448 449 450 0
-451 -452 0
-451 -453 0
-451 -454 0
-451 -455 0
-452 -453 0
-452 -454 0
-452 -455 0
-453 -454 0
-453 -455 0
-454 -455 0
451 452 453 454 455 0
-456 -457 0
-456 -458 0
-456 -459 0
-456 -460 0
-457 -458 0
-457 -459 0
-457 -460 0
-458 -459 0
-458 -460 0
-459 -460 0
456 457 458 459 460 0
-461 -462 0
-461 -463 0
-461 -464 0
-461 -465 0
-462 -463 0
-462 -464 0
-462 -465 0
-463 -464 0
-463 -465 0
-464 -465 0
461 462 463 464 465 0
-466 -467 0
-466 -468 0
-466 -469 0
-466 -470 0
-467 -468 0
-467 -469 0
-467 -470 0
-468 -469 0
-468 -470 0
-469 -470 0
466 467 468 469 470 0
-471 -472 0
-471 -473 0
-471 -474 0
-471 -475 0
-472 -473 0
-472 -474 0
-472 -475 0
-473 -474 0
-473 -475 0
-474 -475 0
471 472 473 474 475 0
-476 -477 0
-476 -478 0
-476 -479 0
-476 -480 0
-477 -478 0
-477 -479 0
-477 -480 0
-478 -479 0
-478 -480 0
-479 -480 0
476 477 478 479 480 0
-481 -482 0
-481 -483 0
-481 -484 0
-481 -485 0
-482 -483 0
-482 -484 0
-482 -485 0
-483 -484 0
-483 -485 0
-484 -485 0
481 482 483 484 485 0
-486 -487 0
-486 -488 0
-486 -489 0
-486 -490 0
-487 -488 0
-487 -489 0
-487 -490 0
-488 -489 0
-488 -490 0
-489 -490 0
486 487 488 489 490 0
-491 -492 0
-491 -493 0
-491 -494 0
-491 -495 0
-492 -493 0
-492 -494 0
-492 -495 0
-493 -494 0
-493 -495 0
-494 -495 0
491 492 493 494 495 0
-496 -497 0
-496 -498 0
-496 -499 0
-496 -500 0
-497 -498 0
-497 -499 0
-497 -500 0
-498 -499 0
-498 -500 0
-499 -500 0
496 497 498 499 500 0
-86 -106 0
-87 -107 0
-88 -108 0
-89 -109 0
-90 -110 0
-91 -106 0
-92 -107 0
-93 -108 0
-94 -109 0
-95 -110 0
-111 -116 0
-112 -117 0
-113 -118 0
-114 -119 0
-115 -120 0
-126 -146 0
-127 -147 0
-128 -148 0
-129 -149 0
-130 -150 0
-141 -156 0
-142 -157 0
-143 -158 0
-144 -159 0
-145 -160 0
-171 -176 0
-172 -177 0
-173 -178 0
-174 -179 0
-175 -180 0
-176 -186 0
-177 -187 0
-178 -188 0
-179 -189 0
-180 -190 0
-176 -196 0
-177 -197 0
-178 -198 0
-179 -199 0
-180 -200 0
-241 -246 0
-242 -247 0
-243 -248 0
-244 -249 0
-245 -250 0
-251 -271 0
-252 -272 0
-253 -273 0
-254 -274 0
-255 -275 0
-261 -271 0
-262 -272 0
-263 -273 0
-264 -274 0
-265 -275 0
-266 -271 0
-267 -272 0
-268 -273 0
-269 -274 0
-270 -275 0
-286 -306 0
-287 -307 0
-288 -308 0
-289 -309 0
-290 -310 0
-311 -326 0
-312 -327 0
-313 -328 0
-314 -329 0
-315 -330 0
-316 -331 0
-317 -332 0
-318 -333 0
-319 -334 0
-320 -335 0
-321 -336 0
-322 -337 0
-323 -338 0
-324 -339 0
-325 -340 0
-326 -336 0
-327 -337 0
-328 -338 0
-329 -339 0
-330 -340 0
-341 -346 0
-342 -347 0
-343 -348 0
-344 -349 0
-345 -350 0
-361 -366 0
-362 -367 0
-363 -368 0
-364 -369 0
-365 -370 0
-361 -381 0
-362 -382 0
-363 -383 0
-364 -384 0
-365 -385 0
-371 -376 0
-372 -377 0
-373 -378 0
-374 -379 0
-375 -380 0
-381 -401 0
-382 -402 0
-383 -403 0
-384 -404 0
-385 -405 0
-396 -406 0
-397 -407 0
-398 -408 0
-399 -409 0
-400 -410 0
-401 -421 0
-402 -422 0
-403 -423 0
-404 -424 0
-405 -425 0
-416 -426 0
-417 -427 0
-418 -428 0
-419 -429 0
-420 -430 0
-421 -431 0
-422 -432 0
-423 -433 0
-424 -434 0
-425 -435 0
-421 -436 0
-422 -437 0
-423 -438 0
-424 -439 0
-425 -440 0
-421 -441 0
-422 -442 0
-423 -443 0
-424 -444 0
-425 -445 0
-426 -446 0
-427 -447 0
-428 -448 0
-429 -449 0
-430 -450 0
-446 -466 0
-447 -467 0
-448 -468 0
-449 -469 0
-450 -470 0
-451 -466 0
-452 -467 0
-453 -468 0
-454 -469 0
-455 -470 0
-1 -26 0
-2 -27 0
-3 -28 0
-4 -29 0
-5 -30 0
-1 -31 0
-2 -32 0
-3 -33 0
-4 -34 0
-5 -35 0
-1 -146 0
-2 -147 0
-3 -148 0
-4 -149 0
-5 -150 0
-1 -161 0
-2 -162 0
-3 -163 0
-4 -164 0
-5 -165 0
-1 -286 0
-2 -287 0
-3 -288 0
-4 -289 0
-5 -290 0
-1 -361 0
-2 -362 0
-3 -363 0
-4 -364 0
-5 -365 0
-1 -366 0
-2 -367 0
-3 -368 0
-4 -369 0
-5 -370 0
-1 -401 0
-2 -402 0
-3 -403 0
-4 -404 0
-5 -405 0
-1 -466 0
-2 -467 0
-3 -468 0
-4 -469 0
-5 -470 0
-1 -476 0
-2 -477 0
-3 -478 0
-4 -479 0
-5 -480 0
-6 -126 0
-7 -127 0
-8 -128 0
-9 -129 0
-10 -130 0
-6 -176 0
-7 -177 0
-8 -178 0
-9 -179 0
-10 -180 0
-6 -241 0
-7 -242 0
-8 -243 0
-9 -244 0
-10 -245 0
-6 -251 0
-7 -252 0
-8 -253 0
-9 -254 0
-10 -255 0
-6 -401 0
-7 -402 0
-8 -403 0
-9 -404 0
-10 -405 0
-6 -466 0
-7 -467 0
-8 -468 0
-9 -469 0
-10 -470 0
-6 -471 0
-7 -472 0
-8 -473 0
-9 -474 0
-10 -475 0
-11 -81 0
-12 -82 0
-13 -83 0
-14 -84 0
-15 -85 0
-11 -91 0
-12 -92 0
-13 -93 0
-14 -94 0
-15 -95 0
-11 -151 0
-12 -152 0
-13 -153 0
-14 -154 0
-15 -155 0
-11 -206 0
-12 -207 0
-13 -208 0
-14 -209 0
-15 -210 0
-11 -256 0
-12 -257 0
-13 -258 0
-14 -259 0
-15 -260 0
-11 -281 0
-12 -282 0
-13 -283 0
-14 -284 0
-15 -285 0
-11 -386 0
-12 -387 0
-13 -388 0
-14 -389 0
-15 -390 0
-11 -411 0
-12 -412 0
-13 -413 0
-14 -414 0
-15 -415 0
-11 -421 0
-12 -422 0
-13 -423 0
-14 -424 0
-15 -425 0
-11 -426 0
-12 -427 0
-13 -428 0
-14 -429 0
-15 -430 0
-16 -46 0
-17 -47 0
-18 -48 0
-19 -49 0
-20 -50 0
-16 -251 0
-17 -252 0
-18 -253 0
-19 -254 0
-20 -255 0
-16 -291 0
-17 -292 0
-18 -293 0
-19 -294 0
-20 -295 0
-16 -391 0
-17 -392 0
-18 -393 0
-19 -394 0
-20 -395 0
-16 -396 0
-17 -397 0
-18 -398 0
-19 -399 0
-20 -400 0
-16 -486 0
-17 -487 0
-18 -488 0
-19 -489 0
-20 -490 0
-21 -61 0
-22 -62 0
-23 -63 0
-24 -64 0
-25 -65 0
-21 -201 0
-22 -202 0
-23 -203 0
-24 -204 0
-25 -205 0
-21 -236 0
-22 -237 0
-23 -238 0
-24 -239 0
-25 -240 0
-21 -301 0
-22 -302 0
-23 -303 0
-24 -304 0
-25 -305 0
-26 -126 0
-27 -127 0
-28 -128 0
-29 -129 0
-30 -130 0
-26 -151 0
-27 -152 0
-28 -153 0
-29 -154 0
-30 -155 0
-26 -241 0
-27 -242 0
-28 -243 0
-29 -244 0
-30 -245 0
-26 -286 0
-27 -287 0
-28 -288 0
-29 -289 0
-30 -290 0
-26 -481 0
-27 -482 0
-28 -483 0
-29 -484 0
-30 -485 0
-31 -66 0
-32 -67 0
-33 -68 0
-34 -69 0
-35 -70 0
-31 -76 0
-32 -77 0
-33 -78 0
-34 -79 0
-35 -80 0
-31 -256 0
-32 -257 0
-33 -258 0
-34 -259 0
-35 -260 0
-31 -261 0
-32 -262 0
-33 -263 0
-34 -264 0
-35 -265 0
-31 -346 0
-32 -347 0
-33 -348 0
-34 -349 0
-35 -350 0
-31 -361 0
-32 -362 0
-33 -363 0
-34 -364 0
-35 -365 0
-31 -401 0
-32 -402 0
-33 -403 0
-34 -404 0
-35 -405 0
-31 -406 0
-32 -407 0
-33 -408 0
-34 -409 0
-35 -410 0
-31 -431 0
-32 -432 0
-33 -433 0
-34 -434 0
-35 -435 0
-31 -491 0
-32 -492 0
-33 -493 0
-34 -494 0
-35 -495 0
-36 -61 0
-37 -62 0
-38 -63 0
-39 -64 0
-40 -65 0
-36 -151 0
-37 -152 0
-38 -153 0
-39 -154 0
-40 -155 0
-36 -176 0
-37 -177 0
-38 -178 0
-39 -179 0
-40 -180 0
-36 -186 0
-37 -187 0
-38 -188 0
-39 -189 0
-40 -190 0
-36 -276 0
-37 -277 0
-38 -278 0
-39 -279 0
-40 -280 0
-36 -311 0
-37 -312 0
-38 -313 0
-39 -314 0
-40 -315 0
-36 -441 0
-37 -442 0
-38 -443 0
-39 -444 0
-40 -445 0
-41 -151 0
-42 -152 0
-43 -153 0
-44 -154 0
-45 -155 0
-41 -156 0
-42 -157 0
-43 -158 0
-44 -159 0
-45 -160 0
-41 -276 0
-42 -277 0
-43 -278 0
-44 -279 0
-45 -280 0
-41 -311 0
-42 -312 0
-43 -313 0
-44 -314 0
-45 -315 0
-41 -316 0
-42 -317 0
-43 -318 0
-44 -319 0
-45 -320 0
-41 -336 0
-42 -337 0
-43 -338 0
-44 -339 0
-45 -340 0
-41 -411 0
-42 -412 0
-43 -413 0
-44 -414 0
-45 -415 0
-41 -416 0
-42 -417 0
-43 -418 0
-44 -419 0
-45 -420 0
-41 -476 0
-42 -477 0
-43 -478 0
-44 -479 0
-45 -480 0
-46 -71 0
-47 -72 0
-48 -73 0
-49 -74 0
-50 -75 0
-46 -146 0
-47 -147 0
-48 -148 0
-49 -149 0
-50 -150 0
-46 -161 0
-47 -162 0
-48 -163 0
-49 -164 0
-50 -165 0
-46 -251 0
-47 -252 0
-48 -253 0
-49 -254 0
-50 -255 0
-46 -266 0
-47 -267 0
-48 -268 0
-49 -269 0
-50 -270 0
-46 -311 0
-47 -312 0
-48 -313 0
-49 -314 0
-50 -315 0
-46 -316 0
-47 -317 0
-48 -318 0
-49 -319 0
-50 -320 0
-46 -411 0
-47 -412 0
-48 -413 0
-49 -414 0
-50 -415 0
-51 -131 0
-52 -132 0
-53 -133 0
-54 -134 0
-55 -135 0
-51 -266 0
-52 -267 0
-53 -268 0
-54 -269 0
-55 -270 0
-51 -271 0
-52 -272 0
-53 -273 0
-54 -274 0
-55 -275 0
-51 -341 0
-52 -342 0
-53 -343 0
-54 -344 0
-55 -345 0
-51 -471 0
-52 -472 0
-53 -473 0
-54 -474 0
-55 -475 0
-56 -146 0
-57 -147 0
-58 -148 0
-59 -149 0
-60 -150 0
-56 -201 0
-57 -202 0
-58 -203 0
-59 -204 0
-60 -205 0
-56 -326 0
-57 -327 0
-58 -328 0
-59 -329 0
-60 -330 0
-56 -426 0
-57 -427 0
-58 -428 0
-59 -429 0
-60 -430 0
-61 -131 0
-62 -132 0
-63 -133 0
-64 -134 0
-65 -135 0
-61 -281 0
-62 -282 0
-63 -283 0
-64 -284 0
-65 -285 0
-61 -316 0
-62 -317 0
-63 -318 0
-64 -319 0
-65 -320 0
-61 -401 0
-62 -402 0
-63 -403 0
-64 -404 0
-65 -405 0
-61 -431 0
-62 -432 0
-63 -433 0
-64 -434 0
-65 -435 0
-61 -496 0
-62 -497 0
-63 -498 0
-64 -499 0
-65 -500 0
-66 -111 0
-67 -112 0
-68 -113 0
-69 -114 0
-70 -115 0
-66 -116 0
-67 -117 0
-68 -118 0
-69 -119 0
-70 -120 0
-66 -216 0
-67 -217 0
-68 -218 0
-69 -219 0
-70 -220 0
-66 -221 0
-67 -222 0
-68 -223 0
-69 -224 0
-70 -225 0
-66 -256 0
-67 -257 0
-68 -258 0
-69 -259 0
-70 -260 0
-66 -266 0
-67 -267 0
-68 -268 0
-69 -269 0
-70 -270 0
-66 -291 0
-67 -292 0
-68 -293 0
-69 -294 0
-70 -295 0
-66 -296 0
-67 -297 0
-68 -298 0
-69 -299 0
-70 -300 0
-66 -346 0
-67 -347 0
-68 -348 0
-69 -349 0
-70 -350 0
-66 -486 0
-67 -487 0
-68 -488 0
-69 -489 0
-70 -490 0
-71 -141 0
-72 -142 0
-73 -143 0
-74 -144 0
-75 -145 0
-71 -226 0
-72 -227 0
-73 -228 0
-74 -229 0
-75 -230 0
-71 -236 0
-72 -237 0
-73 -238 0
-74 -239 0
-75 -240 0
-71 -276 0
-72 -277 0
-73 -278 0
-74 -279 0
-75 -280 0
-71 -411 0
-72 -412 0
-73 -413 0
-74 -414 0
-75 -415 0
-71 -436 0
-72 -437 0
-73 -438 0
-74 -439 0
-75 -440 0
-71 -491 0
-72 -492 0
-73 -493 0
-74 -494 0
-75 -495 0
-76 -196 0
-77 -197 0
-78 -198 0
-79 -199 0
-80 -200 0
-76 -266 0
-77 -267 0
-78 -268 0
-79 -269 0
-80 -270 0
-76 -341 0
-77 -342 0
-78 -343 0
-79 -344 0
-80 -345 0
-76 -451 0
-77 -452 0
-78 -453 0
-79 -454 0
-80 -455 0
-81 -161 0
-82 -162 0
-83 -163 0
-84 -164 0
-85 -165 0
-81 -276 0
-82 -277 0
-83 -278 0
-84 -279 0
-85 -280 0
-81 -281 0
-82 -282 0
-83 -283 0
-84 -284 0
-85 -285 0
-81 -346 0
-82 -347 0
-83 -348 0
-84 -349 0
-85 -350 0
-86 -161 0
-87 -162 0
-88 -163 0
-89 -164 0
-90 -165 0
-86 -196 0
-87 -197 0
-88 -198 0
-89 -199 0
-90 -200 0
-86 -216 0
-87 -217 0
-88 -218 0
-89 -219 0
-90 -220 0
-86 -351 0
-87 -352 0
-88 -353 0
-89 -354 0
-90 -355 0
-86 -451 0
-87 -452 0
-88 -453 0
-89 -454 0
-90 -455 0
-86 -491 0
-87 -492 0
-88 -493 0
-89 -494 0
-90 -495 0
-91 -116 0
-92 -117 0
-93 -118 0
-94 -119 0
-95 -120 0
-91 -181 0
-92 -182 0
-93 -183 0
-94 -184 0
-95 -185 0
-91 -246 0
-92 -247 0
-93 -248 0
-94 -249 0
-95 -250 0
-91 -261 0
-92 -262 0
-93 -263 0
-94 -264 0
-95 -265 0
-91 -281 0
-92 -282 0
-93 -283 0
-94 -284 0
-95 -285 0
-91 -371 0
-92 -372 0
-93 -373 0
-94 -374 0
-95 -375 0
-91 -386 0
-92 -387 0
-93 -388 0
-94 -389 0
-95 -390 0
-91 -391 0
-92 -392 0
-93 -393 0
-94 -394 0
-95 -395 0
-91 -411 0
-92 -412 0
-93 -413 0
-94 -414 0
-95 -415 0
-91 -436 0
-92 -437 0
-93 -438 0
-94 -439 0
-95 -440 0
-91 -491 0
-92 -492 0
-93 -493 0
-94 -494 0
-95 -495 0
-96 -131 0
-97 -132 0
-98 -133 0
-99 -134 0
-100 -135 0
-96 -246 0
-97 -247 0
-98 -248 0
-99 -249 0
-100 -250 0
-96 -291 0
-97 -292 0
-98 -293 0
-99 -294 0
-100 -295 0
-96 -301 0
-97 -302 0
-98 -303 0
-99 -304 0
-100 -305 0
-96 -361 0
-97 -362 0
-98 -363 0
-99 -364 0
-100 -365 0
-101 -201 0
-102 -202 0
-103 -203 0
-104 -204 0
-105 -205 0
-101 -231 0
-102 -232 0
-103 -233 0
-104 -234 0
-105 -235 0
-101 -276 0
-102 -277 0
-103 -278 0
-104 -279 0
-105 -280 0
-101 -331 0
-102 -332 0
-103 -333 0
-104 -334 0
-105 -335 0
-101 -346 0
-102 -347 0
-103 -348 0
-104 -349 0
-105 -350 0
-101 -381 0
-102 -382 0
-103 -383 0
-104 -384 0
-105 -385 0
-101 -406 0
-102 -407 0
-103 -408 0
-104 -409 0
-105 -410 0
-106 -181 0
-107 -182 0
-108 -183 0
-109 -184 0
-110 -185 0
-106 -226 0
-107 -227 0
-108 -228 0
-109 -229 0
-110 -230 0
-106 -306 0
-107 -307 0
-108 -308 0
-109 -309 0
-110 -310 0
-106 -326 0
-107 -327 0
-108 -328 0
-109 -329 0
-110 -330 0
-106 -421 0
-107 -422 0
-108 -423 0
-109 -424 0
-110 -425 0
-111 -196 0
-112 -197 0
-113 -198 0
-114 -199 0
-115 -200 0
-111 -391 0
-112 -392 0
-113 -393 0
-114 -394 0
-115 -395 0
-111 -426 0
-112 -427 0
-113 -428 0
-114 -429 0
-115 -430 0
-111 -436 0
-112 -437 0
-113 -438 0
-114 -439 0
-115 -440 0
-111 -441 0
-112 -442 0
-113 -443 0
-114 -444 0
-115 -445 0
-116 -151 0
-117 -152 0
-118 -153 0
-119 -154 0
-120 -155 0
-116 -166 0
-117 -167 0
-118 -168 0
-119 -169 0
-120 -170 0
-116 -256 0
-117 -257 0
-118 -258 0
-119 -259 0
-120 -260 0
-116 -271 0
-117 -272 0
-118 -273 0
-119 -274 0
-120 -275 0
-116 -301 0
-117 -302 0
-118 -303 0
-119 -304 0
-120 -305 0
-116 -431 0
-117 -432 0
-118 -433 0
-119 -434 0
-120 -435 0
-116 -471 0
-117 -472 0
-118 -473 0
-119 -474 0
-120 -475 0
-121 -151 0
-122 -152 0
-123 -153 0
-124 -154 0
-125 -155 0
-121 -196 0
-122 -197 0
-123 -198 0
-124 -199 0
-125 -200 0
-121 -251 0
-122 -252 0
-123 -253 0
-124 -254 0
-125 -255 0
-121 -276 0
-122 -277 0
-123 -278 0
-124 -279 0
-125 -280 0
-121 -301 0
-122 -302 0
-123 -303 0
-124 -304 0
-125 -305 0
-126 -206 0
-127 -207 0
-128 -208 0
-129 -209 0
-130 -210 0
-126 -286 0
-127 -287 0
-128 -288 0
-129 -289 0
-130 -290 0
-126 -331 0
-127 -332 0
-128 -333 0
-129 -334 0
-130 -335 0
-126 -356 0
-127 -357 0
-128 -358 0
-129 -359 0
-130 -360 0
-126 -461 0
-127 -462 0
-128 -463 0
-129 -464 0
-130 -465 0
-131 -291 0
-132 -292 0
-133 -293 0
-134 -294 0
-135 -295 0
-131 -381 0
-132 -382 0
-133 -383 0
-134 -384 0
-135 -385 0
-131 -396 0
-132 -397 0
-133 -398 0
-134 -399 0
-135 -400 0
-131 -406 0
-132 -407 0
-133 -408 0
-134 -409 0
-135 -410 0
-131 -421 0
-132 -422 0
-133 -423 0
-134 -424 0
-135 -425 0
-136 -461 0
-137 -462 0
-138 -463 0
-139 -464 0
-140 -465 0
-141 -191 0
-142 -192 0
-143 -193 0
-144 -194 0
-145 -195 0
-141 -386 0
-142 -387 0
-143 -388 0
-144 -389 0
-145 -390 0
-141 -441 0
-142 -442 0
-143 -443 0
-144 -444 0
-145 -445 0
-146 -331 0
-147 -332 0
-148 -333 0
-149 -334 0
-150 -335 0
-146 -351 0
-147 -352 0
-148 -353 0
-149 -354 0
-150 -355 0
-146 -471 0
-147 -472 0
-148 -473 0
-149 -474 0
-150 -475 0
-151 -186 0
-152 -187 0
-153 -188 0
-154 -189 0
-155 -190 0
-151 -216 0
-152 -217 0
-153 -218 0
-154 -219 0
-155 -220 0
-151 -236 0
-152 -237 0
-153 -238 0
-154 -239 0
-155 -240 0
-151 -241 0
-152 -242 0
-153 -243 0
-154 -244 0
-155 -245 0
-151 -251 0
-152 -252 0
-153 -253 0
-154 -254 0
-155 -255 0
-151 -361 0
-152 -362 0
-153 -363 0
-154 -364 0
-155 -365 0
-151 -406 0
-152 -407 0
-153 -408 0
-154 -409 0
-155 -410 0
-151 -416 0
-152 -417 0
-153 -418 0
-154 -419 0
-155 -420 0
-151 -426 0
-152 -427 0
-153 -428 0
-154 -429 0
-155 -430 0
-156 -296 0
-157 -297 0
-158 -298 0
-159 -299 0
-160 -300 0
-156 -326 0
-157 -327 0
-158 -328 0
-159 -329 0
-160 -330 0
-156 -346 0
-157 -347 0
-158 -348 0
-159 -349 0
-160 -350 0
-156 -396 0
-157 -397 0
-158 -398 0
-159 -399 0
-160 -400 0
-156 -471 0
-157 -472 0
-158 -473 0
-159 -474 0
-160 -475 0
-161 -256 0
-162 -257 0
-163 -258 0
-164 -259 0
-165 -260 0
-161 -266 0
-162 -267 0
-163 -268 0
-164 -269 0
-165 -270 0
-161 -271 0
-162 -272 0
-163 -273 0
-164 -274 0
-165 -275 0
-161 -281 0
-162 -282 0
-163 -283 0
-164 -284 0
-165 -285 0
-161 -316 0
-162 -317 0
-163 -318 0
-164 -319 0
-165 -320 0
-161 -351 0
-162 -352 0
-163 -353 0
-164 -354 0
-165 -355 0
-161 -371 0
-162 -372 0
-163 -373 0
-164 -374 0
-165 -375 0
-161 -386 0
-162 -387 0
-163 -388 0
-164 -389 0
-165 -390 0
-161 -401 0
-162 -402 0
-163 -403 0
-164 -404 0
-165 -405 0
-161 -406 0
-162 -407 0
-163 -408 0
-164 -409 0
-165 -410 0
-161 -491 0
-162 -492 0
-163 -493 0
-164 -494 0
-165 -495 0
-161 -496 0
-162 -497 0
-163 -498 0
-164 -499 0
-165 -500 0
-166 -211 0
-167 -212 0
-168 -213 0
-169 -214 0
-170 -215 0
-166 -266 0
-167 -267 0
-168 -268 0
-169 -269 0
-170 -270 0
-166 -276 0
-167 -277 0
-168 -278 0
-169 -279 0
-170 -280 0
-166 -321 0
-167 -322 0
-168 -323 0
-169 -324 0
-170 -325 0
-166 -356 0
-167 -357 0
-168 -358 0
-169 -359 0
-170 -360 0
-171 -331 0
-172 -332 0
-173 -333 0
-174 -334 0
-175 -335 0
-171 -406 0
-172 -407 0
-173 -408 0
-174 -409 0
-175 -410 0
-176 -241 0
-177 -242 0
-178 -243 0
-179 -244 0
-180 -245 0
-176 -271 0
-177 -272 0
-178 -273 0
-179 -274 0
-180 -275 0
-176 -286 0
-177 -287 0
-178 -288 0
-179 -289 0
-180 -290 0
-176 -366 0
-177 -367 0
-178 -368 0
-179 -369 0
-180 -370 0
-176 -401 0
-177 -402 0
-178 -403 0
-179 -404 0
-180 -405 0
-176 -431 0
-177 -432 0
-178 -433 0
-179 -434 0
-180 -435 0
-176 -476 0
-177 -477 0
-178 -478 0
-179 -479 0
-180 -480 0
-181 -461 0
-182 -462 0
-183 -463 0
-184 -464 0
-185 -465 0
-181 -481 0
-182 -482 0
-183 -483 0
-184 -484 0
-185 -485 0
-186 -246 0
-187 -247 0
-188 -248 0
-189 -249 0
-190 -250 0
-186 -251 0
-187 -252 0
-188 -253 0
-189 -254 0
-190 -255 0
-186 -261 0
-187 -262 0
-188 -263 0
-189 -264 0
-190 -265 0
-186 -346 0
-187 -347 0
-188 -348 0
-189 -349 0
-190 -350 0
-186 -391 0
-187 -392 0
-188 -393 0
-189 -394 0
-190 -395 0
-186 -461 0
-187 -462 0
-188 -463 0
-189 -464 0
-190 -465 0
-186 -466 0
-187 -467 0
-188 -468 0
-189 -469 0
-190 -470 0
-186 -491 0
-187 -492 0
-188 -493 0
-189 -494 0
-190 -495 0
-191 -241 0
-192 -242 0
-193 -243 0
-194 -244 0
-195 -245 0
-191 -261 0
-192 -262 0
-193 -263 0
-194 -264 0
-195 -265 0
-191 -296 0
-192 -297 0
-193 -298 0
-194 -299 0
-195 -300 0
-191 -321 0
-192 -322 0
-193 -323 0
-194 -324 0
-195 -325 0
-191 -341 0
-192 -342 0
-193 -343 0
-194 -344 0
-195 -345 0
-191 -371 0
-192 -372 0
-193 -373 0
-194 -374 0
-195 -375 0
-191 -441 0
-192 -442 0
-193 -443 0
-194 -444 0
-195 -445 0
-196 -316 0
-197 -317 0
-198 -318 0
-199 -319 0
-200 -320 0
-196 -381 0
-197 -382 0
-198 -383 0
-199 -384 0
-200 -385 0
-201 -236 0
-202 -237 0
-203 -238 0
-204 -239 0
-205 -240 0
-201 -336 0
-202 -337 0
-203 -338 0
-204 -339 0
-205 -340 0
-201 -371 0
-202 -372 0
-203 -373 0
-204 -374 0
-205 -375 0
-201 -466 0
-202 -467 0
-203 -468 0
-204 -469 0
-205 -470 0
-201 -471 0
-202 -472 0
-203 -473 0
-204 -474 0
-205 -475 0
-206 -276 0
-207 -277 0
-208 -278 0
-209 -279 0
-210 -280 0
-206 -371 0
-207 -372 0
-208 -373 0
-209 -374 0
-210 -375 0
-206 -431 0
-207 -432 0
-208 -433 0
-209 -434 0
-210 -435 0
-206 -466 0
-207 -467 0
-208 -468 0
-209 -469 0
-210 -470 0
-206 -476 0
-207 -477 0
-208 -478 0
-209 -479 0
-210 -480 0
-211 -316 0
-212 -317 0
-213 -318 0
-214 -319 0
-215 -320 0
-211 -331 0
-212 -332 0
-213 -333 0
-214 -334 0
-215 -335 0
-216 -381 0
-217 -382 0
-218 -383 0
-219 -384 0
-220 -385 0
-216 -411 0
-217 -412 0
-218 -413 0
-219 -414 0
-220 -415 0
-216 -461 0
-217 -462 0
-218 -463 0
-219 -464 0
-220 -465 0
-216 -466 0
-217 -467 0
-218 -468 0
-219 -469 0
-220 -470 0
-216 -481 0
-217 -482 0
-218 -483 0
-219 -484 0
-220 -485 0
-226 -301 0
-227 -302 0
-228 -303 0
-229 -304 0
-230 -305 0
-226 -366 0
-227 -367 0
-228 -368 0
-229 -369 0
-230 -370 0
-226 -416 0
-227 -417 0
-228 -418 0
-229 -419 0
-230 -420 0
-231 -316 0
-232 -317 0
-233 -318 0
-234 -319 0
-235 -320 0
-231 -476 0
-232 -477 0
-233 -478 0
-234 -479 0
-235 -480 0
-231 -491 0
-232 -492 0
-233 -493 0
-234 -494 0
-235 -495 0
-236 -311 0
-237 -312 0
-238 -313 0
-239 -314 0
-240 -315 0
-236 -381 0
-237 -382 0
-238 -383 0
-239 -384 0
-240 -385 0
-236 -396 0
-237 -397 0
-238 -398 0
-239 -399 0
-240 -400 0
-236 -486 0
-237 -487 0
-238 -488 0
-239 -489 0
-240 -490 0
-236 -491 0
-237 -492 0
-238 -493 0
-239 -494 0
-240 -495 0
-241 -301 0
-242 -302 0
-243 -303 0
-244 -304 0
-245 -305 0
-241 -331 0
-242 -332 0
-243 -333 0
-244 -334 0
-245 -335 0
-241 -356 0
-242 -357 0
-243 -358 0
-244 -359 0
-245 -360 0
-241 -371 0
-242 -372 0
-243 -373 0
-244 -374 0
-245 -375 0
-241 -441 0
-242 -442 0
-243 -443 0
-244 -444 0
-245 -445 0
-241 -481 0
-242 -482 0
-243 -483 0
-244 -484 0
-245 -485 0
-246 -281 0
-247 -282 0
-248 -283 0
-249 -284 0
-250 -285 0
-246 -341 0
-247 -342 0
-248 -343 0
-249 -344 0
-250 -345 0
-246 -391 0
-247 -392 0
-248 -393 0
-249 -394 0
-250 -395 0
-246 -466 0
-247 -467 0
-248 -468 0
-249 -469 0
-250 -470 0
-246 -481 0
-247 -482 0
-248 -483 0
-249 -484 0
-250 -485 0
-251 -301 0
-252 -302 0
-253 -303 0
-254 -304 0
-255 -305 0
-251 -321 0
-252 -322 0
-253 -323 0
-254 -324 0
-255 -325 0
-251 -331 0
-252 -332 0
-253 -333 0
-254 -334 0
-255 -335 0
-251 -341 0
-252 -342 0
-253 -343 0
-254 -344 0
-255 -345 0
-251 -371 0
-252 -372 0
-253 -373 0
-254 -374 0
-255 -375 0
-251 -391 0
-252 -392 0
-253 -393 0
-254 -394 0
-255 -395 0
-256 -416 0
-257 -417 0
-258 -418 0
-259 -419 0
-260 -420 0
-256 -456 0
-257 -457 0
-258 -458 0
-259 -459 0
-260 -460 0
-256 -471 0
-257 -472 0
-258 -473 0
-259 -474 0
-260 -475 0
-256 -496 0
-257 -497 0
-258 -498 0
-259 -499 0
-260 -500 0
-261 -356 0
-262 -357 0
-263 -358 0
-264 -359 0
-265 -360 0
-261 -366 0
-262 -367 0
-263 -368 0
-264 -369 0
-265 -370 0
-261 -371 0
-262 -372 0
-263 -373 0
-264 -374 0
-265 -375 0
-266 -336 0
-267 -337 0
-268 -338 0
-269 -339 0
-270 -340 0
-266 -366 0
-267 -367 0
-268 -368 0
-269 -369 0
-270 -370 0
-266 -376 0
-267 -377 0
-268 -378 0
-269 -379 0
-270 -380 0
-266 -451 0
-267 -452 0
-268 -453 0
-269 -454 0
-270 -455 0
-271 -321 0
-272 -322 0
-273 -323 0
-274 -324 0
-275 -325 0
-271 -361 0
-272 -362 0
-273 -363 0
-274 -364 0
-275 -365 0
-271 -411 0
-272 -412 0
-273 -413 0
-274 -414 0
-275 -415 0
-271 -471 0
-272 -472 0
-273 -473 0
-274 -474 0
-275 -475 0
-276 -316 0
-277 -317 0
-278 -318 0
-279 -319 0
-280 -320 0
-276 -371 0
-277 -372 0
-278 -373 0
-279 -374 0
-280 -375 0
-276 -381 0
-277 -382 0
-278 -383 0
-279 -384 0
-280 -385 0
-276 -396 0
-277 -397 0
-278 -398 0
-279 -399 0
-280 -400 0
-276 -446 0
-277 -447 0
-278 -448 0
-279 -449 0
-280 -450 0
-276 -481 0
-277 -482 0
-278 -483 0
-279 -484 0
-280 -485 0
-276 -486 0
-277 -487 0
-278 -488 0
-279 -489 0
-280 -490 0
-281 -336 0
-282 -337 0
-283 -338 0
-284 -339 0
-285 -340 0
-281 -371 0
-282 -372 0
-283 -373 0
-284 -374 0
-285 -375 0
-281 -451 0
-282 -452 0
-283 -453 0
-284 -454 0
-285 -455 0
-281 -481 0
-282 -482 0
-283 -483 0
-284 -484 0
-285 -485 0
-281 -486 0
-282 -487 0
-283 -488 0
-284 -489 0
-285 -490 0
-281 -491 0
-282 -492 0
-283 -493 0
-284 -494 0
-285 -495 0
-286 -366 0
-287 -367 0
-288 -368 0
-289 -369 0
-290 -370 0
-286 -386 0
-287 -387 0
-288 -388 0
-289 -389 0
-290 -390 0
-286 -426 0
-287 -427 0
-288 -428 0
-289 -429 0
-290 -430 0
-291 -336 0
-292 -337 0
-293 -338 0
-294 -339 0
-295 -340 0
-291 -401 0
-292 -402 0
-293 -403 0
-294 -404 0
-295 -405 0
-296 -336 0
-297 -337 0
-298 -338 0
-299 -339 0
-300 -340 0
-296 -386 0
-297 -387 0
-298 -388 0
-299 -389 0
-300 -390 0
-296 -471 0
-297 -472 0
-298 -473 0
-299 -474 0
-300 -475 0
-301 -351 0
-302 -352 0
-303 -353 0
-304 -354 0
-305 -355 0
-301 -471 0
-302 -472 0
-303 -473 0
-304 -474 0
-305 -475 0
-306 -331 0
-307 -332 0
-308 -333 0
-309 -334 0
-310 -335 0
-306 -376 0
-307 -377 0
-308 -378 0
-309 -379 0
-310 -380 0
-306 -391 0
-307 -392 0
-308 -393 0
-309 -394 0
-310 -395 0
-306 -441 0
-307 -442 0
-308 -443 0
-309 -444 0
-310 -445 0
-311 -346 0
-312 -347 0
-313 -348 0
-314 -349 0
-315 -350 0
-311 -436 0
-312 -437 0
-313 -438 0
-314 -439 0
-315 -440 0
-311 -466 0
-312 -467 0
-313 -468 0
-314 -469 0
-315 -470 0
-311 -476 0
-312 -477 0
-313 -478 0
-314 -479 0
-315 -480 0
-316 -411 0
-317 -412 0
-318 -413 0
-319 -414 0
-320 -415 0
-321 -381 0
-322 -382 0
-323 -383 0
-324 -384 0
-325 -385 0
-326 -491 0
-327 -492 0
-328 -493 0
-329 -494 0
-330 -495 0
-331 -361 0
-332 -362 0
-333 -363 0
-334 -364 0
-335 -365 0
-331 -476 0
-332 -477 0
-333 -478 0
-334 -479 0
-335 -480 0
-336 -486 0
-337 -487 0
-338 -488 0
-339 -489 0
-340 -490 0
-341 -376 0
-342 -377 0
-343 -378 0
-344 -379 0
-345 -380 0
-341 -416 0
-342 -417 0
-343 -418 0
-344 -419 0
-345 -420 0
-341 -471 0
-342 -472 0
-343 -473 0
-344 -474 0
-345 -475 0
-346 -376 0
-347 -377 0
-348 -378 0
-349 -379 0
-350 -380 0
-346 -496 0
-347 -497 0
-348 -498 0
-349 -499 0
-350 -500 0
-351 -381 0
-352 -382 0
-353 -383 0
-354 -384 0
-355 -385 0
-351 -441 0
-352 -442 0
-353 -443 0
-354 -444 0
-355 -445 0
-356 -436 0
-357 -437 0
-358 -438 0
-359 -439 0
-360 -440 0
-356 -451 0
-357 -452 0
-358 -453 0
-359 -454 0
-360 -455 0
-356 -471 0
-357 -472 0
-358 -473 0
-359 -474 0
-360 -475 0
-356 -491 0
-357 -492 0
-358 -493 0
-359 -494 0
-360 -495 0
-361 -401 0
-362 -402 0
-363 -403 0
-364 -404 0
-365 -405 0
-361 -416 0
-362 -417 0
-363 -418 0
-364 -419 0
-365 -420 0
-376 -486 0
-377 -487 0
-378 -488 0
-379 -489 0
-380 -490 0
-386 -411 0
-387 -412 0
-388 -413 0
-389 -414 0
-390 -415 0
-386 -416 0
-387 -417 0
-388 -418 0
-389 -419 0
-390 -420 0
-386 -486 0
-387 -487 0
-388 -488 0
-389 -489 0
-390 -490 0
-391 -481 0
-392 -482 0
-393 -483 0
-394 -484 0
-395 -485 0
-396 -431 0
-397 -432 0
-398 -433 0
-399 -434 0
-400 -435 0
-396 -441 0
-397 -442 0
-398 -443 0
-399 -444 0
-400 -445 0
-401 -466 0
-402 -467 0
-403 -468 0
-404 -469 0
-405 -470 0
-406 -491 0
-407 -492 0
-408 -493 0
-409 -494 0
-410 -495 0
-411 -471 0
-412 -472 0
-413 -473 0
-414 -474 0
-415 -475 0
-416 -446 0
-417 -447 0
-418 -448 0
-419 -449 0
-420 -450 0
-416 -476 0
-417 -477 0
-418 -478 0
-419 -479 0
-420 -480 0
-431 -496 0
-432 -497 0
-433 -498 0
-434 -499 0
-435 -500 0
-436 -461 0
-437 -462 0
-438 -463 0
-439 -464 0
-440 -465 0
-436 -491 0
-437 -492 0
-438 -493 0
-439 -494 0
-440 -495 0
-456 -481 0
-457 -482 0
-458 -483 0
-459 -484 0
-460 -485 0
